qbf_easy_train/easy_4032_SAT.qdimacs
p cnf 30 80
a 24 10 12 0
e 1 2 3 4 5 6 7 8 9 11 13 14 15 16 17 18 19 20 21 22 23 25 26 27 28 29 30 0
2 1 -3 0
-2 -1 -3 0
2 -1 3 0
-2 1 3 0
-4 -1 0
-4 3 0
1 -3 4 0
-6 -4 0
-6 -5 0
4 5 6 0
-8 7 -9 0
8 -7 -9 0
-8 -7 9 0
8 7 9 0
-11 9 0
-11 10 0
-9 -10 11 0
2 11 -12 0
-2 -11 -12 0
2 -11 12 0
-2 11 12 0
13 -7 0
13 12 0
7 -12 -13 0
-6 -13 -14 0
6 13 -14 0
-6 13 14 0
6 -13 14 0
10 2 -15 0
-10 -2 -15 0
10 -2 15 0
-10 2 15 0
1 16 0
-1 16 0
-16 -17 0
16 -17 0
18 15 0
18 -17 0
-15 17 -18 0
20 -19 0
20 -12 0
19 12 -20 0
-21 -10 0
-21 3 0
10 -3 21 0
-22 1 -23 0
22 -1 -23 0
-22 -1 23 0
22 1 23 0
-24 22 0
-24 23 0
-22 -23 24 0
25 24 0
25 -23 0
-24 23 -25 0
-26 -7 0
-26 -25 0
7 25 26 0
-21 -26 -27 0
21 26 -27 0
-21 26 27 0
21 -26 27 0
28 20 0
28 -27 0
-20 27 -28 0
18 28 -29 0
-18 -28 -29 0
18 -28 29 0
-18 28 29 0
30 -14 0
30 29 0
14 -29 -30 0
8 21 22 10 -6 -20 0
-16 28 11 -1 -22 19 0
-21 3 -28 17 23 0
-15 -17 -3 -8 -25 -22 0
-4 -24 -14 -1 10 0
-23 10 24 -22 0
25 -26 24 6 -28 17 0
30 0
