sat_easy_train/easy_4032_SAT.dimacs
p cnf 111 359
2 -3 -4 0
-2 3 -4 0
2 3 4 0
-2 -3 4 0
5 -1 0
5 -4 0
1 4 -5 0
-8 -6 0
-8 7 0
6 -7 8 0
-10 8 0
-10 -9 0
-8 9 10 0
-5 10 -11 0
5 -10 -11 0
-5 -10 11 0
5 10 11 0
14 -12 0
14 13 0
12 -13 -14 0
-15 -8 0
-15 -7 0
8 7 15 0
-15 -16 -17 0
15 16 -17 0
-15 16 17 0
15 -16 17 0
17 -18 -19 0
-17 18 -19 0
17 18 19 0
-17 -18 19 0
-14 -19 -20 0
14 19 -20 0
-14 19 20 0
14 -19 20 0
21 11 0
21 -20 0
-11 20 -21 0
5 22 -23 0
-5 -22 -23 0
5 -22 23 0
-5 22 23 0
-24 23 0
-24 -23 0
-25 -24 0
-25 -11 0
24 11 25 0
26 -21 0
26 25 0
21 -25 -26 0
30 -28 0
30 -29 0
28 29 -30 0
31 -4 0
31 -28 0
4 28 -31 0
33 32 0
33 22 0
-32 -22 -33 0
-34 31 0
-34 -33 0
-31 33 34 0
-35 30 0
-35 -34 0
-30 34 35 0
-27 -35 -36 0
27 35 -36 0
-27 35 36 0
27 -35 36 0
37 26 0
37 36 0
-26 -36 -37 0
-38 17 0
-38 2 0
-17 -2 38 0
-40 -39 0
-40 -29 0
39 29 40 0
-41 19 0
-41 40 0
-19 -40 41 0
-42 19 0
-42 1 0
-19 -1 42 0
-43 42 0
-43 2 0
-42 -2 43 0
-44 41 0
-44 43 0
-41 -43 44 0
-45 8 0
-45 18 0
-8 -18 45 0
46 -1 0
46 -31 0
1 31 -46 0
47 45 0
47 46 0
-45 -46 -47 0
48 -44 0
48 -47 0
44 47 -48 0
-13 39 -49 0
13 -39 -49 0
-13 -39 49 0
13 39 49 0
48 49 -50 0
-48 -49 -50 0
48 -49 50 0
-48 49 50 0
-51 -13 0
-51 15 0
13 -15 51 0
-52 -50 0
-52 51 0
50 -51 52 0
-53 3 0
-53 -9 0
-3 9 53 0
18 53 -54 0
-18 -53 -54 0
18 -53 54 0
-18 53 54 0
-54 -17 -55 0
54 17 -55 0
-54 17 55 0
54 -17 55 0
29 -55 -56 0
-29 55 -56 0
29 55 56 0
-29 -55 56 0
57 52 0
57 56 0
-52 -56 -57 0
58 22 0
58 -17 0
-22 17 -58 0
58 19 -59 0
-58 -19 -59 0
58 -19 59 0
-58 19 59 0
59 -53 -60 0
-59 53 -60 0
59 53 60 0
-59 -53 60 0
-61 13 0
-61 60 0
-13 -60 61 0
62 -11 0
62 -30 0
11 30 -62 0
63 -11 0
63 -62 0
11 62 -63 0
64 61 0
64 -63 0
-61 63 -64 0
-65 -11 0
-65 53 0
11 -53 65 0
66 14 0
66 65 0
-14 -65 -66 0
-67 -64 0
-67 66 0
64 -66 67 0
68 16 0
68 28 0
-16 -28 -68 0
42 -68 -69 0
-42 68 -69 0
42 68 69 0
-42 -68 69 0
70 -67 0
70 -69 0
67 69 -70 0
71 -28 0
71 -32 0
28 32 -71 0
72 3 0
72 -71 0
-3 71 -72 0
73 70 0
73 72 0
-70 -72 -73 0
-74 57 0
-74 73 0
-57 -73 74 0
75 38 0
75 -74 0
-38 74 -75 0
37 75 -76 0
-37 -75 -76 0
37 -75 76 0
-37 75 76 0
-77 -4 0
-77 10 0
4 -10 77 0
78 77 0
78 4 0
-77 -4 -78 0
-39 4 -79 0
39 -4 -79 0
-39 -4 79 0
39 4 79 0
-80 16 0
-80 -9 0
-16 9 80 0
-4 80 -81 0
4 -80 -81 0
-4 -80 81 0
4 80 81 0
82 79 0
82 -81 0
-79 81 -82 0
-83 -78 0
-83 82 0
78 -82 83 0
84 -17 0
84 -29 0
17 29 -84 0
85 18 0
85 6 0
-18 -6 -85 0
30 65 -86 0
-30 -65 -86 0
30 -65 86 0
-30 65 86 0
87 18 0
87 -5 0
-18 5 -87 0
-88 -8 0
-88 87 0
8 -87 88 0
89 86 0
89 -88 0
-86 88 -89 0
90 28 0
90 17 0
-28 -17 -90 0
89 90 -91 0
-89 -90 -91 0
89 -90 91 0
-89 90 91 0
-92 -85 0
-92 -91 0
85 91 92 0
-84 -92 -93 0
84 92 -93 0
-84 92 93 0
84 -92 93 0
-83 -93 -94 0
83 93 -94 0
-83 93 94 0
83 -93 94 0
95 -30 0
95 32 0
30 -32 -95 0
94 95 -96 0
-94 -95 -96 0
94 -95 96 0
-94 95 96 0
-97 -22 0
-97 40 0
22 -40 97 0
8 23 -98 0
-8 -23 -98 0
8 -23 98 0
-8 23 98 0
99 13 0
99 13 0
-13 -99 0
100 19 0
100 99 0
-19 -99 -100 0
101 -100 0
101 -42 0
100 42 -101 0
102 -98 0
102 101 0
98 -101 -102 0
103 -55 0
103 -2 0
55 2 -103 0
104 -102 0
104 103 0
102 -103 -104 0
105 29 0
105 -3 0
-29 3 -105 0
15 55 -106 0
-15 -55 -106 0
15 -55 106 0
-15 55 106 0
107 -105 0
107 -106 0
105 106 -107 0
104 -107 -108 0
-104 107 -108 0
104 107 108 0
-104 -107 108 0
-97 -108 -109 0
97 108 -109 0
-97 108 109 0
97 -108 109 0
-110 -96 0
-110 -109 0
96 109 110 0
111 -76 0
111 -110 0
76 110 -111 0
47 -16 30 -39 -4 19 0
-23 26 0
5 24 -73 -30 77 0
-32 -1 -49 -75 0
-80 34 77 53 0
-10 -102 -56 -79 0
3 -63 62 0
-19 82 0
-39 -80 0
7 -33 -95 41 0
5 -82 -41 -38 0
17 -4 0
-87 -40 -68 0
-20 -43 3 0
-22 46 64 0
-108 -25 0
-42 -13 -36 0
-37 -85 -39 0
-97 46 93 106 -78 0
-19 103 -52 -9 -56 -43 0
77 -106 0
-17 -60 93 -99 0
42 -65 43 0
96 -60 -84 0
60 87 62 36 -58 0
-111 31 68 -36 -83 79 0
106 -35 62 43 -47 0
105 -45 0
-32 -27 -42 0
91 -39 30 -107 64 0
-68 90 0
93 -55 25 -48 0
75 -26 20 -104 0
27 13 111 -47 0
-70 85 0
-26 6 -9 -62 0
-33 -32 0
10 65 78 -67 81 2 0
20 -61 -66 0
-74 -94 0
47 -20 -98 -88 1 0
52 -66 109 0
73 91 106 0
-106 -9 72 -48 -78 0
3 -89 36 0
-18 20 -96 -12 40 71 0
-97 88 78 -94 0
111 0
